p cnf 114 8
-20 -122 0
-4 -9 -10 -12 -16 -21 -22 -25 -26 -27 -33 -38 -39 -42 -43 -44 -46 -47 -49 -50 -54 -59 -65 -66 -68 -70 -71 -73 -75 -79 -80 -83 -93 -94 -98 -100 -103 -108 -109 -112 -114 -119 -120 -122 -127 -129 -134 -137 -138 -144 -146 -151 -153 -155 -159 -166 -169 -173 -174 -179 -181 -185 -194 0
-4 -7 -9 -10 -12 -14 -15 -16 -21 -23 -25 -26 -27 -34 -35 -38 -39 -43 -44 -49 -50 -53 -54 -57 -59 -61 -63 -65 -66 -68 -69 -70 -71 -74 -75 -78 -81 -83 -86 -87 -91 -93 -94 -95 -99 -100 -103 -108 -110 -111 -112 -113 -114 -117 -119 -120 -122 -123 -125 -128 -129 -135 -136 -137 -138 -141 -145 -146 -152 -153 -154 -155 -157 -167 -168 -169 -171 -172 -173 -174 -180 -181 -183 -184 -185 -189 -190 -193 -194 -199 -202 -207 0
-12 -21 -27 -30 -38 -42 -44 -50 -58 -64 -66 -68 -73 -80 -82 -98 -103 -114 -122 -146 0
-7 -12 -14 -15 -21 -22 -23 -27 -30 -33 -34 -35 -38 -44 -46 -47 -50 -53 -57 -58 -61 -63 -64 -66 -68 -69 -74 -78 -79 -81 -82 -86 -87 -91 -95 -99 -103 -109 -110 -111 -113 -114 -117 -122 -123 -125 -127 -128 -134 -135 -136 -141 -144 -145 -146 -151 -152 -154 -157 -159 -166 -167 -168 -171 -172 -179 -180 -183 -184 -189 -190 -193 -199 -202 -207 0
-7 -12 -14 -15 -16 -21 -22 -23 -26 -27 -30 -33 -34 -35 -38 -44 -46 -47 -49 -50 -53 -54 -57 -58 -61 -63 -64 -66 -68 -69 -71 -74 -78 -79 -81 -82 -86 -87 -91 -99 -103 -108 -109 -110 -111 -112 -113 -114 -117 -122 -123 -125 -127 -128 -134 -135 -136 -137 -141 -144 -145 -146 -151 -152 -154 -159 -166 -167 -168 -169 -171 -172 -179 -180 -183 -184 -185 -189 -190 -193 -199 -202 -207 0
-4 -7 -9 -10 -12 -14 -15 -16 -21 -22 -23 -25 -26 -27 -34 -35 -38 -39 -43 -44 -46 -47 -49 -50 -53 -54 -57 -59 -61 -63 -65 -66 -68 -69 -70 -71 -74 -75 -79 -81 -83 -86 -87 -91 -93 -94 -95 -99 -100 -103 -108 -110 -111 -112 -114 -117 -119 -120 -122 -123 -125 -127 -128 -129 -135 -136 -137 -138 -145 -146 -151 -152 -153 -154 -155 -157 -159 -167 -168 -169 -172 -173 -174 -179 -180 -181 -183 -184 -185 -189 -190 -193 -194 -199 -202 -207 0
-4 -9 -10 -12 -16 -21 -22 -23 -25 -26 -27 -33 -35 -38 -39 -42 -43 -44 -46 -47 -49 -50 -54 -57 -59 -63 -65 -66 -68 -69 -70 -71 -73 -74 -75 -79 -80 -81 -83 -87 -91 -93 -94 -95 -98 -99 -100 -103 -108 -109 -110 -111 -112 -114 -117 -119 -120 -122 -125 -127 -128 -129 -134 -135 -136 -137 -138 -145 -146 -151 -152 -153 -154 -155 -157 -159 -167 -168 -169 -172 -173 -174 -179 -180 -181 -183 -184 -185 -189 -190 -193 -194 -199 -202 -207 0
